<?xml version = "1.0" encoding="UTF-8" standalone="yes"?>
<CPLEXSolution version="1.2">
 <header
   problemName="random_50"
   solutionName="incumbent"
   solutionIndex="-1"
   objectiveValue="594.15298810913953"
   solutionTypeValue="3"
   solutionTypeString="primal"
   solutionStatusValue="102"
   solutionStatusString="integer optimal, tolerance"
   solutionMethodString="mip"
   primalFeasible="1"
   dualFeasible="0"
   MIPNodes="0"
   MIPIterations="7751"
   writeLevel="3"/>
 <quality
   epInt="1.0000000000000001e-05"
   epRHS="9.9999999999999995e-07"
   maxIntInfeas="0"
   maxPrimalInfeas="1.7408297026122455e-13"
   maxX="49"
   maxSlack="48"/>
 <variables>
  <variable name="y_0_1" index="0" value="1"/>
  <variable name="y_1_2" index="50" value="1"/>
  <variable name="y_2_3" index="100" value="1"/>
  <variable name="y_3_7" index="153" value="1"/>
  <variable name="y_4_29" index="224" value="1"/>
  <variable name="y_5_4" index="249" value="1"/>
  <variable name="y_6_5" index="299" value="1"/>
  <variable name="y_7_8" index="350" value="1"/>
  <variable name="y_8_9" index="400" value="1"/>
  <variable name="y_9_30" index="470" value="1"/>
  <variable name="y_10_46" index="535" value="1"/>
  <variable name="y_11_10" index="549" value="1"/>
  <variable name="y_12_11" index="599" value="1"/>
  <variable name="y_13_12" index="649" value="1"/>
  <variable name="y_14_13" index="699" value="1"/>
  <variable name="y_15_17" index="751" value="1"/>
  <variable name="y_16_15" index="799" value="1"/>
  <variable name="y_17_14" index="847" value="1"/>
  <variable name="y_18_41" index="922" value="1"/>
  <variable name="y_19_18" index="949" value="1"/>
  <variable name="y_20_19" index="999" value="1"/>
  <variable name="y_21_22" index="1050" value="1"/>
  <variable name="y_22_23" index="1100" value="1"/>
  <variable name="y_23_6" index="1133" value="1"/>
  <variable name="y_24_33" index="1208" value="1"/>
  <variable name="y_25_16" index="1241" value="1"/>
  <variable name="y_26_32" index="1305" value="1"/>
  <variable name="y_27_28" index="1350" value="1"/>
  <variable name="y_28_0" index="1372" value="1"/>
  <variable name="y_29_27" index="1448" value="1"/>
  <variable name="y_30_31" index="1500" value="1"/>
  <variable name="y_31_24" index="1543" value="1"/>
  <variable name="y_32_25" index="1593" value="1"/>
  <variable name="y_33_26" index="1643" value="1"/>
  <variable name="y_34_37" index="1702" value="1"/>
  <variable name="y_35_34" index="1749" value="1"/>
  <variable name="y_36_20" index="1784" value="1"/>
  <variable name="y_37_36" index="1849" value="1"/>
  <variable name="y_38_21" index="1883" value="1"/>
  <variable name="y_39_38" index="1949" value="1"/>
  <variable name="y_40_39" index="1999" value="1"/>
  <variable name="y_41_40" index="2049" value="1"/>
  <variable name="y_42_44" index="2101" value="1"/>
  <variable name="y_43_35" index="2142" value="1"/>
  <variable name="y_44_43" index="2199" value="1"/>
  <variable name="y_45_42" index="2247" value="1"/>
  <variable name="y_46_49" index="2302" value="1"/>
  <variable name="y_47_48" index="2350" value="1"/>
  <variable name="y_48_45" index="2397" value="1"/>
  <variable name="y_49_47" index="2448" value="1"/>
  <variable name="x_0_1" index="2450" value="49"/>
  <variable name="x_1_2" index="2499" value="48"/>
  <variable name="x_2_3" index="2548" value="47"/>
  <variable name="x_3_7" index="2600" value="45.999999999999829"/>
  <variable name="x_4_29" index="2670" value="3"/>
  <variable name="x_5_4" index="2694" value="4"/>
  <variable name="x_6_5" index="2743" value="5"/>
  <variable name="x_7_8" index="2793" value="44.999999999999829"/>
  <variable name="x_8_9" index="2842" value="43.999999999999829"/>
  <variable name="x_9_30" index="2911" value="42.999999999999829"/>
  <variable name="x_10_46" index="2975" value="27.999999999999826"/>
  <variable name="x_11_10" index="2988" value="28.999999999999826"/>
  <variable name="x_12_11" index="3037" value="29.999999999999826"/>
  <variable name="x_13_12" index="3086" value="30.999999999999826"/>
  <variable name="x_14_13" index="3135" value="31.999999999999826"/>
  <variable name="x_15_17" index="3186" value="33.999999999999829"/>
  <variable name="x_16_15" index="3233" value="34.999999999999829"/>
  <variable name="x_17_14" index="3280" value="32.999999999999829"/>
  <variable name="x_18_41" index="3354" value="13"/>
  <variable name="x_19_18" index="3380" value="14"/>
  <variable name="x_20_19" index="3429" value="15"/>
  <variable name="x_21_22" index="3479" value="8"/>
  <variable name="x_22_23" index="3528" value="7"/>
  <variable name="x_23_6" index="3560" value="6"/>
  <variable name="x_24_33" index="3634" value="39.999999999999829"/>
  <variable name="x_25_16" index="3666" value="35.999999999999829"/>
  <variable name="x_26_32" index="3729" value="37.999999999999829"/>
  <variable name="x_27_3" index="3749" value="-1.7408297026122455e-13"/>
  <variable name="x_27_28" index="3773" value="1"/>
  <variable name="x_27_29" index="3774" value="1.7408297026122455e-13"/>
  <variable name="x_29_27" index="3869" value="2"/>
  <variable name="x_30_31" index="3920" value="41.999999999999829"/>
  <variable name="x_31_24" index="3962" value="40.999999999999829"/>
  <variable name="x_32_25" index="4011" value="36.999999999999829"/>
  <variable name="x_33_26" index="4060" value="38.999999999999829"/>
  <variable name="x_34_37" index="4118" value="18"/>
  <variable name="x_35_34" index="4164" value="19"/>
  <variable name="x_36_20" index="4198" value="16"/>
  <variable name="x_37_36" index="4262" value="17"/>
  <variable name="x_38_21" index="4295" value="9"/>
  <variable name="x_39_38" index="4360" value="10"/>
  <variable name="x_40_39" index="4409" value="11"/>
  <variable name="x_41_40" index="4458" value="12"/>
  <variable name="x_42_29" index="4495" value="-1.7408297026122455e-13"/>
  <variable name="x_42_44" index="4509" value="22"/>
  <variable name="x_43_35" index="4549" value="20"/>
  <variable name="x_44_43" index="4605" value="21"/>
  <variable name="x_45_42" index="4652" value="22.999999999999826"/>
  <variable name="x_46_49" index="4706" value="26.999999999999826"/>
  <variable name="x_47_48" index="4753" value="24.999999999999826"/>
  <variable name="x_48_45" index="4799" value="23.999999999999826"/>
  <variable name="x_49_47" index="4849" value="25.999999999999826"/>
 </variables>
 <objectiveValues>
  <objective index="0" name="" value="594.15298810913941"/>
 </objectiveValues>
</CPLEXSolution>
